2534
2544
2496
2490
2472
2472
2472
2467
2473
2466
2440
2450
2450
2450
2464
2459
2433
2433
2459
2413
2394
2457
2446
2416
2430
2387
2394
2387
2387
2369
2377
2386
2377
2377
2377
2370
2358
2358
2358
2349
2342
2342
2334
2321
2317
2316
2243
2242
2235
2235
2241
2235
2235
2225
2208
2208
2208
2201
2185
2181
2174
2146
2142
2146
2137
2130
2127
2130
2101
2086
2082
2079
2079
2052
2050
2028
2033
1978
1985
1970
1970
1970
1970
1959
1959
1957
1935
1935
1914
1914
1924
1914
1919
1899
1899
1893
1884
1879
1861
1842
1834
1834
1834
1831
1821
1821
1821
1824
1803
1802
1793
1793
1784
1772
1772
1772
1759
1755
1754
1742
1742
1732
1738
1734
1704
1710
1704
1704
1704
1699
1699
1698
1699
1693
1693
1671
1664
1664
1674
1664
1659
1655
1655
1655
1662
1655
1644
1655
1630
1630
1630
1619
1619
1609
1610
1608
1608
1608
1608
1604
1604
1602
1585
1592
1585
1594
1549
1549
1553
1549
1548
1549
1548
1549
1548
1548
1548
1548
1545
1548
1545
1536
1536
1536
1536
1536
1536
1531
1532
1531
1532
1529
1528
1528
1528
1521
1523
1521
1513
1516
1513
1513
1513
1513
1515
1510
1510
1503
1503
1503
1496
1500
1496
1499
1494
1494
1494
1494
1488
1488
1487
1488
1475
1475
1470
1470
1470
1470
1468
1468
1470
1468
1467
1467
1455
1458
1447
1447
1447
1447
1447
1441
1441
1441
1446
1441
1435
1435
1435
1435
1435
1432
1430
1432
1430
1430
1428
1428
1427
1425
1424
1417
1417
1419
1417
1417
1417
1412
1416
1412
1409
1409
1406
1408
1406
1403
1401
1402
1399
1391
1391
1388
1388
1388
1385
1384
1374
1374
1374
1374
1374
1374
1374
1374
1374
1373
1373
1370
1370
1370
1367
1366
1353
1353
1353
1353
1353
1353
1353
1353
1353
1353
1347
1347
1347
1347
1345
1342
1342
1342
1340
1340
1327
1328
1332
1332
1323
1323
1322
1323
1322
1319
1322
1319
1319
1319
1319
1314
1314
1319
1310
1310
1302
1302
1309
1304
1304
1298
1298
1297
1298
1297
1298
1297
1297
1295
1289
1297
1289
1290
1290
1290
1290
1283
1283
1283
1280
1280
1280
1279
1275
1275
1269
1273
1268
1270
1270
1268
1268
1267
1264
1251
1261
1258
1256
1258
1258
1258
1258
1258
1258
1255
1254
1254
1251
1251
1248
1247
1248
1245
1243
1243
1241
1240
1240
1240
1240
1240
1240
1240
1237
1237
1234
1234
1234
1217
1217
1229
1217
1217
1217
1217
1217
1217
1217
1217
1217
1213
1217
1213
1214
1212
1209
1205
1205
1209
1205
1204
1204
1198
1204
1198
1198
1198
1198
1198
1198
1198
1195
1198
1195
1197
1195
1195
1190
1194
1190
1190
1186
1186
1186
1179
1186
1179
1181
1181
1180
1180
1179
1179
1179
1179
1179
1173
1173
1173
1173
1173
1168
1173
1171
1171
1171
1169
1160
1160
1160
1160
1160
1160
1156
1160
1154
1154
1154
1154
1154
1154
1153
1151
1151
1150
1150
1154
1151
1152
1151
1145
1145
1142
1142
1142
1142
1142
1142
1143
1143
1143
1132
1132
1132
1132
1133
1134
1134
1131
1132
1130
1130
1130
1130
1130
1130
1130
1130
1120
1120
1120
1120
1120
1115
1115
1115
1115
1115
1115
1114
1114
1110
1112
1110
1110
1110
1110
1110
1110
1110
1110
1107
1103
1104
1103
1105
1101
1104
1100
1098
1104
1098
1098
1093
1096
1096
1096
1096
1096
1096
1094
1094
1094
1091
1086
1086
1086
1086
1086
1086
1085
1085
1084
1084
1082
1081
1081
1081
1081
1080
1079
1080
1077
1076
1074
1074
1068
1068
1068
1068
1068
1068
1066
1068
1065
1066
1066
1066
1059
1064
1062
1056
1062
1052
1052
1052
1052
1052
1052
1052
1052
1051
1052
1051
1052
1049
1048
1048
1040
1047
1040
1046
1046
1042
1039
1030
1038
1030
1038
1031
1038
1031
1031
1031
1031
1031
1031
1029
1029
1028
1029
1029
1029
1028
1028
1028
1028
1026
1026
1021
1023
1021
1023
1021
1018
1014
1014
1014
1014
1014
1014
1014
1013
1013
1014
1014
1014
1006
1009
1011
1008
1007
1007
1007
1005
1005
999
999
998
999
998
998
998
998
998
998
997
996
997
996
997
996
996
996
995
995
995
994
986
986
986
986
986
986
986
985
986
985
986
985
985
983
985
983
982
983
982
977
982
977
977
977
982
977
977
977
976
977
977
973
973
973
973
973
973
970
970
970
970
970
970
970
970
969
969
969
969
969
969
967
969
967
967
967
961
961
961
961
961
961
961
958
958
958
958
958
958
958
958
958
958
958
958
958
958
958
958
954
954
954
952
954
954
954
954
952
953
952
952
951
952
951
951
950
948
950
948
948
946
948
946
948
946
948
948
948
946
946
943
946
943
946
943
943
942
946
942
942
938
942
938
938
938
938
937
937
937
938
937
937
937
937
937
937
933
936
933
933
933
933
933
933
933
933
931
931
930
930
928
930
928
928
928
928
928
928
927
927
927
927
927
923
923
923
921
923
921
921
921
921
921
923
921
923
919
918
917
917
921
918
918
914
914
914
914
914
914
914
913
913
913
913
912
913
910
910
910
910
910
907
907
907
907
907
907
907
906
906
906
906
906
906
906
906
904
904
905
902
902
902
902
901
902
901
901
901
901
898
898
895
898
895
898
895
895
895
898
896
896
896
896
896
892
896
896
892
894
890
890
890
890
890
890
890
890
890
890
890
890
890
889
889
889
887
886
886
886
886
886
886
885
885
885
885
885
885
885
882
882
882
882
882
882
882
882
882
880
879
879
878
878
878
878
878
878
878
878
875
875
875
875
875
875
875
875
875
875
875
874
869
869
869
869
869
869
869
869
869
869
869
869
869
869
869
869
869
869
866
866
866
866
866
866
866
866
866
866
866
866
866
866
866
862
860
860
862
862
857
857
857
857
857
857
857
857
857
857
857
857
857
857
857
857
857
857
857
857
857
857
857
857
857
857
857
857
857
857
857
856
856
856
856
856
856
854
856
856
855
854
855
854
854
854
854
854
852
854
853
854
851
851
851
851
851
851
852
852
852
852
852
850
847
847
847
847
847
847
847
847
847
847
847
847
847
847
847
847
847
847
847
847
847
844
844
844
844
844
844
840
840
840
840
840
840
837
837
837
840
837
837
837
837
837
837
837
837
837
837
837
837
837
837
837
837
837
837
837
837
837
837
837
834
834
834
834
834
834
834
834
834
831
831
834
832
834
834
834
834
832
832
832
832
832
832
832
831
829
829
829
829
829
828
828
828
828
828
828
828
827
827
827
827
827
827
827
825
825
824
825
825
824
824
823
824
824
824
822
822
822
822
822
822
822
822
822
822
822
821
819
819
819
819
819
819
819
819
819
819
818
818
818
818
818
818
818
818
818
814
814
814
814
814
814
814
813
813
813
813
813
813
810
810
810
810
810
810
810
810
811
811
808
810
808
800
808
808
810
807
809
807
809
807
807
807
807
807
804
804
804
804
804
804
804
802
804
802
802
802
800
800
800
800
800
800
800
800
800
800
800
800
800
794
794
794
797
794
790
790
790
790
790
794
794
792
792
792
792
792
792
791
791
791
791
791
791
791
791
790
791
790
791
791
791
789
790
789
789
789
789
788
789
789
789
789
787
789
787
787
786
786
786
785
785
785
785
786
785
787
785
785
785
785
785
785
785
782
782
782
782
782
782
782
782
782
782
782
782
782
782
782
782
782
780
780
780
779
779
780
780
780
780
780
780
780
780
777
780
777
779
777
777
777
777
778
777
777
777
777
777
775
775
775
775
777
775
775
775
775
775
776
775
775
776
776
776
773
775
773
774
773
773
773
773
774
774
774
773
773
773
773
773
773
773
772
772
772
772
772
772
772
772
772
772
770
770
769
770
769
769
769
769
769
769
770
769
769
769
769
769
769
766
769
769
768
768
768
765
768
765
765
765
765
763
765
765
765
765
765
765
765
765
765
765
765
763
763
763
763
763
763
763
763
761
761
761
761
761
761
761
761
761
761
761
761
761
761
761
759
760
759
760
759
759
759
759
759
759
757
757
757
759
757
757
756
758
756
757
757
758
755
755
755
755
755
755
753
755
755
755
755
755
754
754
754
753
753
753
753
753
753
753
753
753
753
753
753
753
753
753
750
750
750
750
750
750
751
751
751
751
751
751
751
751
751
751
749
749
751
749
749
749
751
749
749
749
749
749
749
749
749
749
749
749
748
748
748
748
748
748
747
747
747
746
746
746
746
746
746
746
746
746
746
746
746
746
746
745
746
745
746
743
743
743
743
743
743
743
743
743
743
743
743
743
743
743
743
743
742
742
742
742
742
741
741
741
741
741
739
739
739
739
739
739
739
739
739
739
739
739
739
739
739
737
738
738
738
738
738
738
738
738
738
735
738
735
738
738
738
737
737
737
737
737
737
736
736
736
736
736
736
736
736
736
734
735
735
735
735
735
735
734
734
734
734
734
734
734
734
734
734
734
734
732
732
732
732
732
732
732
732
731
731
732
731
731
731
731
731
731
731
731
730
731
729
730
731
730
730
730
727
727
727
727
727
727
727
727
727
727
727
727
727
727
727
727
727
727
727
727
727
727
727
727
727
727
727
727
727
727
727
727
727
726
727
726
726
726
726
726
727
727
727
727
727
726
726
726
725
726
726
725
725
725
725
725
724
724
724
724
724
724
724
724
724
723
724
724
724
724
724
723
723
723
723
723
723
723
723
723
723
723
722
723
722
722
723
722
722
722
721
721
721
721
721
719
721
719
721
719
720
719
719
719
720
720
720
720
720
720
719
719
719
719
719
719
720
719
719
719
719
719
717
718
718
718
717
718
717
717
717
717
717
717
717
717
717
717
716
717
717
716
716
716
716
715
715
716
714
714
714
714
714
714
714
714
714
714
714
714
714
714
714
714
714
714
714
714
714
714
713
712
713
713
713
713
713
713
713
713
712
712
712
710
712
713
712
712
712
712
712
712
712
712
712
712
712
712
712
710
711
709
711
709
709
709
709
709
709
709
709
709
709
709
709
709
709
709
709
709
709
708
708
708
708
708
706
706
706
706
706
706
706
706
706
706
706
706
706
706
706
706
706
706
706
705
706
706
706
705
706
705
706
705
704
704
704
704
703
703
703
703
702
703
703
703
703
703
703
701
701
701
703
703
703
703
703
702
702
702
702
702
702
701
701
700
700
700
701
701
701
701
701
701
701
701
701
701
701
700
701
699
699
699
699
699
699
699
699
699
699
699
699
699
699
699
699
699
699
699
699
699
699
699
698
699
698
698
697
697
697
697
697
697
697
697
697
697
697
697
697
697
697
697
697
697
697
697
697
697
697
697
697
697
697
697
697
697
696
696
695
695
695
695
695
695
695
695
695
695
695
694
695
694
694
694
694
694
694
694
693
694
693
693
693
693
693
693
693
693
693
693
693
693
693
693
693
693
693
693
693
693
693
693
692
692
692
692
692
692
692
692
692
692
692
692
692
692
692
692
691
691
691
691
690
690
690
690
690
690
691
690
690
690
690
690
690
690
690
690
689
688
688
688
688
688
685
688
685
685
685
688
685
688
685
685
685
685
685
688
688
688
688
688
688
688
688
688
688
688
688
688
688
688
687
687
688
687
687
687
687
687
687
687
684
687
684
684
684
684
684
684
684
684
684
684
684
686
685
684
684
684
684
684
684
684
684
684
684
683
683
683
683
683
683
683
683
683
683
683
683
683
682
682
682
682
682
682
682
682
681
681
681
681
681
681
681
680
680
680
680
680
680
680
680
680
680
680
680
680
680
680
680
680
680
680
680
680
680
680
680
680
680
680
680
680
680
680
680
680
680
680
679
680
680
679
679
679
679
679
679
678
679
678
679
679
679
679
679
679
677
677
678
678
678
678
678
678
678
678
678
678
677
677
677
677
677
677
677
677
677
677
677
677
677
677
676
676
676
676
676
676
676
676
676
676
676
676
676
676
676
676
676
676
676
676
676
676
676
676
676
674
674
674
674
674
674
674
674
674
674
674
674
674
674
674
674
674
674
674
674
674
674
674
674
674
674
674
673
673
674
673
674
673
673
673
673
672
672
672
672
672
672
672
672
672
672
672
672
672
670
672
670
670
670
670
670
671
670
670
670
671
670
668
668
667
667
667
667
668
670
668
668
670
670
670
670
670
670
670
670
670
670
666
666
666
666
666
666
666
667
666
666
666
666
667
667
667
667
666
666
665
665
665
665
665
665
665
665
665
665
665
665
665
665
665
665
665
665
665
665
665
665
665
665
665
665
665
665
665
665
665
665
665
665
665
665
665
665
664
665
664
663
664
664
663
664
663
664
663
663
663
663
663
663
663
663
662
662
662
662
662
662
662
662
662
663
662
662
662
662
662
661
662
661
661
661
661
661
661
661
661
661
661
661
661
661
661
661
661
661
661
661
661
661
661
661
660
661
661
660
660
660
660
660
660
660
660
660
660
660
660
660
660
660
660
660
660
660
660
660
660
659
659
659
659
659
659
659
659
659
659
659
659
657
657
657
657
657
657
657
657
657
657
658
658
658
658
658
657
657
657
657
657
657
657
657
657
657
657
657
658
658
658
658
658
658
658
658
658
658
657
658
657
657
657
657
657
657
657
657
656
656
656
656
656
656
656
656
657
656
656
657
656
657
657
657
657
656
656
656
656
656
656
656
656
655
656
655
655
655
655
655
655
655
655
655
655
655
655
655
655
655
655
655
654
654
653
653
654
653
653
653
653
653
653
653
653
653
652
652
652
652
652
652
652
652
652
652
652
652
652
652
652
652
652
652
652
652
652
652
652
652
652
652
652
652
652
652
652
652
652
651
652
651
651
651
651
651
651
651
651
651
651
651
651
651
651
651
651
651
651
651
651
651
651
651
650
650
650
650
650
650
650
650
650
650
650
650
650
650
650
650
650
650
650
650
650
650
650
649
650
650
649
649
649
649
649
649
649
649
649
649
649
649
649
649
649
649
648
648
648
649
648
648
648
648
648
648
648
648
648
648
648
648
648
648
648
647
647
647
646
647
646
647
646
646
646
646
646
646
646
646
646
646
646
646
646
646
646
646
646
646
646
646
646
646
646
646
646
646
646
646
646
646
646
646
646
646
646
646
646
645
645
646
645
645
645
645
645
645
645
645
644
644
644
644
644
644
644
644
644
644
644
644
644
644
644
644
644
644
644
642
643
642
642
642
642
642
642
642
642
642
642
642
642
642
642
641
641
641
641
641
641
642
642
641
642
642
642
642
642
642
642
642
642
642
642
642
638
641
638
638
642
